p cnf 386 460
12 -4 17 21 22 0
12 -4 17 21 -22 0
12 -4 17 -21 23 0
12 -4 17 -21 -23 0
9 5 14 24 25 0
9 5 14 24 -25 0
9 5 14 -24 26 0
9 5 14 -24 -26 0
11 1 -2 27 28 0
11 1 -2 27 -28 0
11 1 -2 -27 29 0
11 1 -2 -27 -29 0
8 -12 5 30 31 0
8 -12 5 30 -31 0
8 -12 5 -30 32 0
8 -12 5 -30 -32 0
15 20 -18 33 34 0
15 20 -18 33 -34 0
15 20 -18 -33 35 0
15 20 -18 -33 -35 0
5 15 -19 36 37 0
5 15 -19 36 -37 0
5 15 -19 -36 38 0
5 15 -19 -36 -38 0
-1 -12 -3 39 40 0
-1 -12 -3 39 -40 0
-1 -12 -3 -39 41 0
-1 -12 -3 -39 -41 0
-17 -4 -11 42 43 0
-17 -4 -11 42 -43 0
-17 -4 -11 -42 44 0
-17 -4 -11 -42 -44 0
-10 18 4 45 46 0
-10 18 4 45 -46 0
-10 18 4 -45 47 0
-10 18 4 -45 -47 0
-18 15 1 48 49 0
-18 15 1 48 -49 0
-18 15 1 -48 50 0
-18 15 1 -48 -50 0
10 9 19 51 52 0
10 9 19 51 -52 0
10 9 19 -51 53 0
10 9 19 -51 -53 0
6 11 14 54 55 0
6 11 14 54 -55 0
6 11 14 -54 56 0
6 11 14 -54 -56 0
19 -2 -10 57 58 0
19 -2 -10 57 -58 0
19 -2 -10 -57 59 0
19 -2 -10 -57 -59 0
1 9 -18 60 61 0
1 9 -18 60 -61 0
1 9 -18 -60 62 0
1 9 -18 -60 -62 0
6 -1 -13 63 64 0
6 -1 -13 63 -64 0
6 -1 -13 -63 65 0
6 -1 -13 -63 -65 0
10 -5 -6 66 67 0
10 -5 -6 66 -67 0
10 -5 -6 -66 68 0
10 -5 -6 -66 -68 0
10 19 5 69 70 0
10 19 5 69 -70 0
10 19 5 -69 71 0
10 19 5 -69 -71 0
-10 -5 11 72 73 0
-10 -5 11 72 -73 0
-10 -5 11 -72 74 0
-10 -5 11 -72 -74 0
-18 -15 19 75 76 0
-18 -15 19 75 -76 0
-18 -15 19 -75 77 0
-18 -15 19 -75 -77 0
14 -5 -3 78 79 0
14 -5 -3 78 -79 0
14 -5 -3 -78 80 0
14 -5 -3 -78 -80 0
3 1 -2 81 82 0
3 1 -2 81 -82 0
3 1 -2 -81 83 0
3 1 -2 -81 -83 0
2 19 -13 84 85 0
2 19 -13 84 -85 0
2 19 -13 -84 86 0
2 19 -13 -84 -86 0
16 11 -4 87 88 0
16 11 -4 87 -88 0
16 11 -4 -87 89 0
16 11 -4 -87 -89 0
-17 7 -12 90 91 0
-17 7 -12 90 -91 0
-17 7 -12 -90 92 0
-17 7 -12 -90 -92 0
-17 16 15 93 94 0
-17 16 15 93 -94 0
-17 16 15 -93 95 0
-17 16 15 -93 -95 0
-17 -4 -6 96 97 0
-17 -4 -6 96 -97 0
-17 -4 -6 -96 98 0
-17 -4 -6 -96 -98 0
-13 -12 6 99 100 0
-13 -12 6 99 -100 0
-13 -12 6 -99 101 0
-13 -12 6 -99 -101 0
-14 -6 9 102 103 0
-14 -6 9 102 -103 0
-14 -6 9 -102 104 0
-14 -6 9 -102 -104 0
-16 1 18 105 106 0
-16 1 18 105 -106 0
-16 1 18 -105 107 0
-16 1 18 -105 -107 0
7 -18 2 108 109 0
7 -18 2 108 -109 0
7 -18 2 -108 110 0
7 -18 2 -108 -110 0
3 -2 12 111 112 0
3 -2 12 111 -112 0
3 -2 12 -111 113 0
3 -2 12 -111 -113 0
-14 5 -19 114 115 0
-14 5 -19 114 -115 0
-14 5 -19 -114 116 0
-14 5 -19 -114 -116 0
-4 -16 -18 117 118 0
-4 -16 -18 117 -118 0
-4 -16 -18 -117 119 0
-4 -16 -18 -117 -119 0
-18 11 -13 120 121 0
-18 11 -13 120 -121 0
-18 11 -13 -120 122 0
-18 11 -13 -120 -122 0
3 -9 -14 123 124 0
3 -9 -14 123 -124 0
3 -9 -14 -123 125 0
3 -9 -14 -123 -125 0
11 -17 14 126 127 0
11 -17 14 126 -127 0
11 -17 14 -126 128 0
11 -17 14 -126 -128 0
9 -11 -7 129 130 0
9 -11 -7 129 -130 0
9 -11 -7 -129 131 0
9 -11 -7 -129 -131 0
12 9 17 132 133 0
12 9 17 132 -133 0
12 9 17 -132 134 0
12 9 17 -132 -134 0
-2 -15 -1 135 136 0
-2 -15 -1 135 -136 0
-2 -15 -1 -135 137 0
-2 -15 -1 -135 -137 0
20 -4 9 138 139 0
20 -4 9 138 -139 0
20 -4 9 -138 140 0
20 -4 9 -138 -140 0
-14 15 17 141 142 0
-14 15 17 141 -142 0
-14 15 17 -141 143 0
-14 15 17 -141 -143 0
2 11 -4 144 145 0
2 11 -4 144 -145 0
2 11 -4 -144 146 0
2 11 -4 -144 -146 0
-6 7 15 147 148 0
-6 7 15 147 -148 0
-6 7 15 -147 149 0
-6 7 15 -147 -149 0
14 5 -9 150 151 0
14 5 -9 150 -151 0
14 5 -9 -150 152 0
14 5 -9 -150 -152 0
8 7 -18 153 154 0
8 7 -18 153 -154 0
8 7 -18 -153 155 0
8 7 -18 -153 -155 0
18 -13 14 156 157 0
18 -13 14 156 -157 0
18 -13 14 -156 158 0
18 -13 14 -156 -158 0
13 5 -8 159 160 0
13 5 -8 159 -160 0
13 5 -8 -159 161 0
13 5 -8 -159 -161 0
8 13 14 162 163 0
8 13 14 162 -163 0
8 13 14 -162 164 0
8 13 14 -162 -164 0
14 -6 -7 165 166 0
14 -6 -7 165 -166 0
14 -6 -7 -165 167 0
14 -6 -7 -165 -167 0
-20 -18 2 168 169 0
-20 -18 2 168 -169 0
-20 -18 2 -168 170 0
-20 -18 2 -168 -170 0
10 -18 15 171 172 0
10 -18 15 171 -172 0
10 -18 15 -171 173 0
10 -18 15 -171 -173 0
-7 -13 14 174 175 0
-7 -13 14 174 -175 0
-7 -13 14 -174 176 0
-7 -13 14 -174 -176 0
13 2 -14 177 178 0
13 2 -14 177 -178 0
13 2 -14 -177 179 0
13 2 -14 -177 -179 0
-9 -16 20 180 181 0
-9 -16 20 180 -181 0
-9 -16 20 -180 182 0
-9 -16 20 -180 -182 0
-10 -17 8 183 184 0
-10 -17 8 183 -184 0
-10 -17 8 -183 185 0
-10 -17 8 -183 -185 0
13 5 -8 186 187 0
13 5 -8 186 -187 0
13 5 -8 -186 188 0
13 5 -8 -186 -188 0
15 16 -10 189 190 0
15 16 -10 189 -190 0
15 16 -10 -189 191 0
15 16 -10 -189 -191 0
2 -11 -4 192 193 0
2 -11 -4 192 -193 0
2 -11 -4 -192 194 0
2 -11 -4 -192 -194 0
16 8 17 195 196 0
16 8 17 195 -196 0
16 8 17 -195 197 0
16 8 17 -195 -197 0
20 -2 15 198 199 0
20 -2 15 198 -199 0
20 -2 15 -198 200 0
20 -2 15 -198 -200 0
3 1 6 201 202 0
3 1 6 201 -202 0
3 1 6 -201 203 0
3 1 6 -201 -203 0
-7 -3 -5 204 205 0
-7 -3 -5 204 -205 0
-7 -3 -5 -204 206 0
-7 -3 -5 -204 -206 0
7 -13 -5 207 208 0
7 -13 -5 207 -208 0
7 -13 -5 -207 209 0
7 -13 -5 -207 -209 0
7 15 5 210 211 0
7 15 5 210 -211 0
7 15 5 -210 212 0
7 15 5 -210 -212 0
10 -4 11 213 214 0
10 -4 11 213 -214 0
10 -4 11 -213 215 0
10 -4 11 -213 -215 0
-6 16 -8 216 217 0
-6 16 -8 216 -217 0
-6 16 -8 -216 218 0
-6 16 -8 -216 -218 0
1 13 18 219 220 0
1 13 18 219 -220 0
1 13 18 -219 221 0
1 13 18 -219 -221 0
20 15 2 222 223 0
20 15 2 222 -223 0
20 15 2 -222 224 0
20 15 2 -222 -224 0
2 -11 16 225 226 0
2 -11 16 225 -226 0
2 -11 16 -225 227 0
2 -11 16 -225 -227 0
15 -4 -6 228 229 0
15 -4 -6 228 -229 0
15 -4 -6 -228 230 0
15 -4 -6 -228 -230 0
13 -14 -1 231 232 0
13 -14 -1 231 -232 0
13 -14 -1 -231 233 0
13 -14 -1 -231 -233 0
5 -12 14 234 235 0
5 -12 14 234 -235 0
5 -12 14 -234 236 0
5 -12 14 -234 -236 0
-9 -14 4 237 238 0
-9 -14 4 237 -238 0
-9 -14 4 -237 239 0
-9 -14 4 -237 -239 0
-15 9 1 240 241 0
-15 9 1 240 -241 0
-15 9 1 -240 242 0
-15 9 1 -240 -242 0
15 -6 5 243 244 0
15 -6 5 243 -244 0
15 -6 5 -243 245 0
15 -6 5 -243 -245 0
-14 6 -16 246 247 0
-14 6 -16 246 -247 0
-14 6 -16 -246 248 0
-14 6 -16 -246 -248 0
9 14 6 249 250 0
9 14 6 249 -250 0
9 14 6 -249 251 0
9 14 6 -249 -251 0
5 11 -19 252 253 0
5 11 -19 252 -253 0
5 11 -19 -252 254 0
5 11 -19 -252 -254 0
-14 -18 5 255 256 0
-14 -18 5 255 -256 0
-14 -18 5 -255 257 0
-14 -18 5 -255 -257 0
-14 -13 12 258 259 0
-14 -13 12 258 -259 0
-14 -13 12 -258 260 0
-14 -13 12 -258 -260 0
-1 -7 -10 261 262 0
-1 -7 -10 261 -262 0
-1 -7 -10 -261 263 0
-1 -7 -10 -261 -263 0
-10 -9 -13 264 265 0
-10 -9 -13 264 -265 0
-10 -9 -13 -264 266 0
-10 -9 -13 -264 -266 0
-20 16 6 267 268 0
-20 16 6 267 -268 0
-20 16 6 -267 269 0
-20 16 6 -267 -269 0
-14 -17 7 270 271 0
-14 -17 7 270 -271 0
-14 -17 7 -270 272 0
-14 -17 7 -270 -272 0
5 17 -16 273 274 0
5 17 -16 273 -274 0
5 17 -16 -273 275 0
5 17 -16 -273 -275 0
-3 -16 9 276 277 0
-3 -16 9 276 -277 0
-3 -16 9 -276 278 0
-3 -16 9 -276 -278 0
8 -4 -20 279 280 0
8 -4 -20 279 -280 0
8 -4 -20 -279 281 0
8 -4 -20 -279 -281 0
-1 -10 20 282 283 0
-1 -10 20 282 -283 0
-1 -10 20 -282 284 0
-1 -10 20 -282 -284 0
12 -10 -16 285 286 0
12 -10 -16 285 -286 0
12 -10 -16 -285 287 0
12 -10 -16 -285 -287 0
14 5 17 288 289 0
14 5 17 288 -289 0
14 5 17 -288 290 0
14 5 17 -288 -290 0
-9 10 -3 291 292 0
-9 10 -3 291 -292 0
-9 10 -3 -291 293 0
-9 10 -3 -291 -293 0
294 295 297 301 309 0
294 295 297 301 -309 0
294 295 297 -301 310 0
294 295 297 -301 -310 0
294 295 -297 302 311 0
294 295 -297 302 -311 0
294 295 -297 -302 312 0
294 295 -297 -302 -312 0
294 -295 298 303 313 0
294 -295 298 303 -313 0
294 -295 298 -303 314 0
294 -295 298 -303 -314 0
294 -295 -298 304 315 0
294 -295 -298 304 -315 0
294 -295 -298 -304 316 0
294 -295 -298 -304 -316 0
-294 296 299 305 317 0
-294 296 299 305 -317 0
-294 296 299 -305 318 0
-294 296 299 -305 -318 0
-294 296 -299 306 319 0
-294 296 -299 306 -319 0
-294 296 -299 -306 320 0
-294 296 -299 -306 -320 0
-294 -296 300 307 321 0
-294 -296 300 307 -321 0
-294 -296 300 -307 322 0
-294 -296 300 -307 -322 0
-294 -296 -300 308 323 0
-294 -296 -300 308 -323 0
-294 -296 -300 -308 324 0
-294 -296 -300 -308 -324 0
325 326 328 332 340 0
325 326 328 332 -340 0
325 326 328 -332 341 0
325 326 328 -332 -341 0
325 326 -328 333 342 0
325 326 -328 333 -342 0
325 326 -328 -333 343 0
325 326 -328 -333 -343 0
325 -326 329 334 344 0
325 -326 329 334 -344 0
325 -326 329 -334 345 0
325 -326 329 -334 -345 0
325 -326 -329 335 346 0
325 -326 -329 335 -346 0
325 -326 -329 -335 347 0
325 -326 -329 -335 -347 0
-325 327 330 336 348 0
-325 327 330 336 -348 0
-325 327 330 -336 349 0
-325 327 330 -336 -349 0
-325 327 -330 337 350 0
-325 327 -330 337 -350 0
-325 327 -330 -337 351 0
-325 327 -330 -337 -351 0
-325 -327 331 338 352 0
-325 -327 331 338 -352 0
-325 -327 331 -338 353 0
-325 -327 331 -338 -353 0
-325 -327 -331 339 354 0
-325 -327 -331 339 -354 0
-325 -327 -331 -339 355 0
-325 -327 -331 -339 -355 0
356 357 359 363 371 0
356 357 359 363 -371 0
356 357 359 -363 372 0
356 357 359 -363 -372 0
356 357 -359 364 373 0
356 357 -359 364 -373 0
356 357 -359 -364 374 0
356 357 -359 -364 -374 0
356 -357 360 365 375 0
356 -357 360 365 -375 0
356 -357 360 -365 376 0
356 -357 360 -365 -376 0
356 -357 -360 366 377 0
356 -357 -360 366 -377 0
356 -357 -360 -366 378 0
356 -357 -360 -366 -378 0
-356 358 361 367 379 0
-356 358 361 367 -379 0
-356 358 361 -367 380 0
-356 358 361 -367 -380 0
-356 358 -361 368 381 0
-356 358 -361 368 -381 0
-356 358 -361 -368 382 0
-356 358 -361 -368 -382 0
-356 -358 362 369 383 0
-356 -358 362 369 -383 0
-356 -358 362 -369 384 0
-356 -358 362 -369 -384 0
-356 -358 -362 370 385 0
-356 -358 -362 370 -385 0
-356 -358 -362 -370 386 0
-356 -358 -362 -370 -386 0

